peakDumbCharging = 11100; 
Machine = anon_enum(16); 
machineSpeed = [3700,3700,3700,3700,3700,3700,3700,3700,3700,3700,3700,3700,3700,3700,3700,3700]; 
machineLoad = [3700,3700,3700,3700,3700,3700,3700,3700,3700,3700,3700,3700,3700,3700,3700,3700]; 
Car = anon_enum(8); 
demandCar = [8000,7840,4560,11640,32760,5120,20600,20520]; 
arrivalCar = [74,68,65,61,59,53,31,31]; 
departureCar = [77,72,67,68,74,55,44,44]; 
